TCS_Benchmarks/redos_fix/corpus1_output_distinct_3909_3908_16_0.smt2
(set-logic QF_S)
(declare-const x String)
(assert (str.in.re x (re.inter  (re.++  (re.++ (re.range "\u{30}" "\u{39}") (re.++ (re.range "\u{30}" "\u{39}") (re.++ (re.range "\u{30}" "\u{39}") (re.++ (re.range "\u{30}" "\u{39}") (re.++ (re.range "\u{30}" "\u{39}") (re.range "\u{30}" "\u{39}")))))) (re.*  (re.++ (re.range "\u{30}" "\u{39}") (re.++ (re.range "\u{30}" "\u{39}") (re.++ (re.range "\u{30}" "\u{39}") (re.++ (re.range "\u{30}" "\u{39}") (re.++ (re.range "\u{30}" "\u{39}") (re.range "\u{30}" "\u{39}")))))) ))  (re.++  (re.++  (re.union (str.to_re "") (re.union  (re.++  (re.union  (str.to.re "\u{20}") (re.union  (str.to.re "\u{2d}") (re.union  (str.to.re "\u{2e}") (re.union (re.range "\u{30}" "\u{39}") (re.union  (str.to.re "\u{78}") (re.union  (str.to.re "\u{28}")  (str.to.re "\u{29}")))))))  (str.to_re ""))  (re.++  (re.union  (str.to.re "\u{20}") (re.union  (str.to.re "\u{2d}") (re.union  (str.to.re "\u{2e}") (re.union (re.range "\u{30}" "\u{39}") (re.union  (str.to.re "\u{78}") (re.union  (str.to.re "\u{28}")  (str.to.re "\u{29}")))))))   (re.++  (re.union  (str.to.re "\u{20}") (re.union  (str.to.re "\u{2d}") (re.union  (str.to.re "\u{2e}") (re.union (re.range "\u{30}" "\u{39}") (re.union  (str.to.re "\u{78}") (re.union  (str.to.re "\u{28}")  (str.to.re "\u{29}")))))))  (str.to_re ""))))) (re.++  (re.union (str.to_re "") (re.union  (re.++  (re.union  (str.to.re "\u{20}") (re.union  (str.to.re "\u{2d}") (re.union  (str.to.re "\u{2e}") (re.union (re.range "\u{30}" "\u{39}") (re.union  (str.to.re "\u{78}") (re.union  (str.to.re "\u{28}")  (str.to.re "\u{29}")))))))  (str.to_re ""))  (re.++  (re.union  (str.to.re "\u{20}") (re.union  (str.to.re "\u{2d}") (re.union  (str.to.re "\u{2e}") (re.union (re.range "\u{30}" "\u{39}") (re.union  (str.to.re "\u{78}") (re.union  (str.to.re "\u{28}")  (str.to.re "\u{29}")))))))   (re.++  (re.union  (str.to.re "\u{20}") (re.union  (str.to.re "\u{2d}") (re.union  (str.to.re "\u{2e}") (re.union (re.range "\u{30}" "\u{39}") (re.union  (str.to.re "\u{78}") (re.union  (str.to.re "\u{28}")  (str.to.re "\u{29}")))))))  (str.to_re ""))))) (re.++  (re.union (str.to_re "") (re.union  (re.++  (re.union  (str.to.re "\u{20}") (re.union  (str.to.re "\u{2d}") (re.union  (str.to.re "\u{2e}") (re.union (re.range "\u{30}" "\u{39}") (re.union  (str.to.re "\u{78}") (re.union  (str.to.re "\u{28}")  (str.to.re "\u{29}")))))))  (str.to_re ""))  (re.++  (re.union  (str.to.re "\u{20}") (re.union  (str.to.re "\u{2d}") (re.union  (str.to.re "\u{2e}") (re.union (re.range "\u{30}" "\u{39}") (re.union  (str.to.re "\u{78}") (re.union  (str.to.re "\u{28}")  (str.to.re "\u{29}")))))))   (re.++  (re.union  (str.to.re "\u{20}") (re.union  (str.to.re "\u{2d}") (re.union  (str.to.re "\u{2e}") (re.union (re.range "\u{30}" "\u{39}") (re.union  (str.to.re "\u{78}") (re.union  (str.to.re "\u{28}")  (str.to.re "\u{29}")))))))  (str.to_re ""))))) (re.++  (re.union (str.to_re "") (re.union  (re.++  (re.union  (str.to.re "\u{20}") (re.union  (str.to.re "\u{2d}") (re.union  (str.to.re "\u{2e}") (re.union (re.range "\u{30}" "\u{39}") (re.union  (str.to.re "\u{78}") (re.union  (str.to.re "\u{28}")  (str.to.re "\u{29}")))))))  (str.to_re ""))  (re.++  (re.union  (str.to.re "\u{20}") (re.union  (str.to.re "\u{2d}") (re.union  (str.to.re "\u{2e}") (re.union (re.range "\u{30}" "\u{39}") (re.union  (str.to.re "\u{78}") (re.union  (str.to.re "\u{28}")  (str.to.re "\u{29}")))))))   (re.++  (re.union  (str.to.re "\u{20}") (re.union  (str.to.re "\u{2d}") (re.union  (str.to.re "\u{2e}") (re.union (re.range "\u{30}" "\u{39}") (re.union  (str.to.re "\u{78}") (re.union  (str.to.re "\u{28}")  (str.to.re "\u{29}")))))))  (str.to_re ""))))) (re.++  (re.union (str.to_re "") (re.union  (re.++  (re.union  (str.to.re "\u{20}") (re.union  (str.to.re "\u{2d}") (re.union  (str.to.re "\u{2e}") (re.union (re.range "\u{30}" "\u{39}") (re.union  (str.to.re "\u{78}") (re.union  (str.to.re "\u{28}")  (str.to.re "\u{29}")))))))  (str.to_re ""))  (re.++  (re.union  (str.to.re "\u{20}") (re.union  (str.to.re "\u{2d}") (re.union  (str.to.re "\u{2e}") (re.union (re.range "\u{30}" "\u{39}") (re.union  (str.to.re "\u{78}") (re.union  (str.to.re "\u{28}")  (str.to.re "\u{29}")))))))   (re.++  (re.union  (str.to.re "\u{20}") (re.union  (str.to.re "\u{2d}") (re.union  (str.to.re "\u{2e}") (re.union (re.range "\u{30}" "\u{39}") (re.union  (str.to.re "\u{78}") (re.union  (str.to.re "\u{28}")  (str.to.re "\u{29}")))))))  (str.to_re "")))))  (re.union (str.to_re "") (re.union  (re.++  (re.union  (str.to.re "\u{20}") (re.union  (str.to.re "\u{2d}") (re.union  (str.to.re "\u{2e}") (re.union (re.range "\u{30}" "\u{39}") (re.union  (str.to.re "\u{78}") (re.union  (str.to.re "\u{28}")  (str.to.re "\u{29}")))))))  (str.to_re ""))  (re.++  (re.union  (str.to.re "\u{20}") (re.union  (str.to.re "\u{2d}") (re.union  (str.to.re "\u{2e}") (re.union (re.range "\u{30}" "\u{39}") (re.union  (str.to.re "\u{78}") (re.union  (str.to.re "\u{28}")  (str.to.re "\u{29}")))))))   (re.++  (re.union  (str.to.re "\u{20}") (re.union  (str.to.re "\u{2d}") (re.union  (str.to.re "\u{2e}") (re.union (re.range "\u{30}" "\u{39}") (re.union  (str.to.re "\u{78}") (re.union  (str.to.re "\u{28}")  (str.to.re "\u{29}")))))))  (str.to_re "")))))))))) (re.*  (re.++  (re.union (str.to_re "") (re.union  (re.++  (re.union  (str.to.re "\u{20}") (re.union  (str.to.re "\u{2d}") (re.union  (str.to.re "\u{2e}") (re.union (re.range "\u{30}" "\u{39}") (re.union  (str.to.re "\u{78}") (re.union  (str.to.re "\u{28}")  (str.to.re "\u{29}")))))))  (str.to_re ""))  (re.++  (re.union  (str.to.re "\u{20}") (re.union  (str.to.re "\u{2d}") (re.union  (str.to.re "\u{2e}") (re.union (re.range "\u{30}" "\u{39}") (re.union  (str.to.re "\u{78}") (re.union  (str.to.re "\u{28}")  (str.to.re "\u{29}")))))))   (re.++  (re.union  (str.to.re "\u{20}") (re.union  (str.to.re "\u{2d}") (re.union  (str.to.re "\u{2e}") (re.union (re.range "\u{30}" "\u{39}") (re.union  (str.to.re "\u{78}") (re.union  (str.to.re "\u{28}")  (str.to.re "\u{29}")))))))  (str.to_re ""))))) (re.++  (re.union (str.to_re "") (re.union  (re.++  (re.union  (str.to.re "\u{20}") (re.union  (str.to.re "\u{2d}") (re.union  (str.to.re "\u{2e}") (re.union (re.range "\u{30}" "\u{39}") (re.union  (str.to.re "\u{78}") (re.union  (str.to.re "\u{28}")  (str.to.re "\u{29}")))))))  (str.to_re ""))  (re.++  (re.union  (str.to.re "\u{20}") (re.union  (str.to.re "\u{2d}") (re.union  (str.to.re "\u{2e}") (re.union (re.range "\u{30}" "\u{39}") (re.union  (str.to.re "\u{78}") (re.union  (str.to.re "\u{28}")  (str.to.re "\u{29}")))))))   (re.++  (re.union  (str.to.re "\u{20}") (re.union  (str.to.re "\u{2d}") (re.union  (str.to.re "\u{2e}") (re.union (re.range "\u{30}" "\u{39}") (re.union  (str.to.re "\u{78}") (re.union  (str.to.re "\u{28}")  (str.to.re "\u{29}")))))))  (str.to_re ""))))) (re.++  (re.union (str.to_re "") (re.union  (re.++  (re.union  (str.to.re "\u{20}") (re.union  (str.to.re "\u{2d}") (re.union  (str.to.re "\u{2e}") (re.union (re.range "\u{30}" "\u{39}") (re.union  (str.to.re "\u{78}") (re.union  (str.to.re "\u{28}")  (str.to.re "\u{29}")))))))  (str.to_re ""))  (re.++  (re.union  (str.to.re "\u{20}") (re.union  (str.to.re "\u{2d}") (re.union  (str.to.re "\u{2e}") (re.union (re.range "\u{30}" "\u{39}") (re.union  (str.to.re "\u{78}") (re.union  (str.to.re "\u{28}")  (str.to.re "\u{29}")))))))   (re.++  (re.union  (str.to.re "\u{20}") (re.union  (str.to.re "\u{2d}") (re.union  (str.to.re "\u{2e}") (re.union (re.range "\u{30}" "\u{39}") (re.union  (str.to.re "\u{78}") (re.union  (str.to.re "\u{28}")  (str.to.re "\u{29}")))))))  (str.to_re ""))))) (re.++  (re.union (str.to_re "") (re.union  (re.++  (re.union  (str.to.re "\u{20}") (re.union  (str.to.re "\u{2d}") (re.union  (str.to.re "\u{2e}") (re.union (re.range "\u{30}" "\u{39}") (re.union  (str.to.re "\u{78}") (re.union  (str.to.re "\u{28}")  (str.to.re "\u{29}")))))))  (str.to_re ""))  (re.++  (re.union  (str.to.re "\u{20}") (re.union  (str.to.re "\u{2d}") (re.union  (str.to.re "\u{2e}") (re.union (re.range "\u{30}" "\u{39}") (re.union  (str.to.re "\u{78}") (re.union  (str.to.re "\u{28}")  (str.to.re "\u{29}")))))))   (re.++  (re.union  (str.to.re "\u{20}") (re.union  (str.to.re "\u{2d}") (re.union  (str.to.re "\u{2e}") (re.union (re.range "\u{30}" "\u{39}") (re.union  (str.to.re "\u{78}") (re.union  (str.to.re "\u{28}")  (str.to.re "\u{29}")))))))  (str.to_re ""))))) (re.++  (re.union (str.to_re "") (re.union  (re.++  (re.union  (str.to.re "\u{20}") (re.union  (str.to.re "\u{2d}") (re.union  (str.to.re "\u{2e}") (re.union (re.range "\u{30}" "\u{39}") (re.union  (str.to.re "\u{78}") (re.union  (str.to.re "\u{28}")  (str.to.re "\u{29}")))))))  (str.to_re ""))  (re.++  (re.union  (str.to.re "\u{20}") (re.union  (str.to.re "\u{2d}") (re.union  (str.to.re "\u{2e}") (re.union (re.range "\u{30}" "\u{39}") (re.union  (str.to.re "\u{78}") (re.union  (str.to.re "\u{28}")  (str.to.re "\u{29}")))))))   (re.++  (re.union  (str.to.re "\u{20}") (re.union  (str.to.re "\u{2d}") (re.union  (str.to.re "\u{2e}") (re.union (re.range "\u{30}" "\u{39}") (re.union  (str.to.re "\u{78}") (re.union  (str.to.re "\u{28}")  (str.to.re "\u{29}")))))))  (str.to_re "")))))  (re.union (str.to_re "") (re.union  (re.++  (re.union  (str.to.re "\u{20}") (re.union  (str.to.re "\u{2d}") (re.union  (str.to.re "\u{2e}") (re.union (re.range "\u{30}" "\u{39}") (re.union  (str.to.re "\u{78}") (re.union  (str.to.re "\u{28}")  (str.to.re "\u{29}")))))))  (str.to_re ""))  (re.++  (re.union  (str.to.re "\u{20}") (re.union  (str.to.re "\u{2d}") (re.union  (str.to.re "\u{2e}") (re.union (re.range "\u{30}" "\u{39}") (re.union  (str.to.re "\u{78}") (re.union  (str.to.re "\u{28}")  (str.to.re "\u{29}")))))))   (re.++  (re.union  (str.to.re "\u{20}") (re.union  (str.to.re "\u{2d}") (re.union  (str.to.re "\u{2e}") (re.union (re.range "\u{30}" "\u{39}") (re.union  (str.to.re "\u{78}") (re.union  (str.to.re "\u{28}")  (str.to.re "\u{29}")))))))  (str.to_re "")))))))))) )) )))
(check-sat)
(get-model)