TCS_Benchmarks/redos_fix/corpus1_output_distinct_3909_3908_16_0.txt
(\d){6,}
([ \-\.\dx\(\)]{0,2}){6,}